
(set-logic ALL) 

(declare-datatype MyList ((Nil) (Cons (head Real) (tail MyList)) )) 
(declare-fun l0 () MyList) 
(declare-fun l1 () MyList) 
(declare-fun l2 () MyList) 
(declare-fun l3 () MyList) 
(declare-fun i0 () Real) 
(declare-fun i1 () Real) 
(assert (= l1 Nil) )
(assert (not (= l0 l3)) )
(assert (is-Nil l3) )
(assert (not (= l2 l1)) )
(assert (or (= l1 Nil) (= l2 Nil)) )
(assert (and (is-Cons Nil) (= l2 l2)) )
(assert (not (= l1 Nil)) )
(assert (is-Nil Nil) )
(check-sat)
